cliques=[{0,7},{1,15},{2,10},{3,15},{4,15},{5,15},{6,7},{0,7},{6,8},{6,9},{2,10},{11,16},{10,12},{13,15},{14,15},{1,15},{0,16},{6,17},{8,18},{16,19},{1,20},{15,21},{1,22},{15,23},{15,24},{0,25},{0,26},{10,27},{1,28},{8,29},{15,30},{0,31},{15,32},{4,33},{7,34},{2,35},{10,36},{2,37},{16,38},{1,39},{0,40},{16,41},{6,42},{15,43},{3,44},{2,45},{6,46},{15,47},{15,48},{0,49},{0,50},{0,51},{6,52},{0,53},{7,54},{2,55},{15,56},{0,57},{3,58},{1,59},{0,60},{2,61},{2,62},{16,63},{16,64},{1,65},{10,66},{15,67},{16,68},{6,69},{15,70},{15,71},{15,72},{15,73},{0,74},{16,75},{15,76},{2,77},{1,78},{10,79},{16,80},{7,81},{10,82},{15,83},{15,84},{2,85},{0,86},{16,87},{6,88},{6,89},{15,90},{1,91},{2,92},{15,93},{16,94}];
nr_cliques=95;
